\ Model IntegerProblem
\ LP format - for model browsing. Use MPS format to capture full model detail.
Maximize
  115.8730158730159 C0 + 96.29629629629629 C1 + 57.67195767195767 C2
   + 135.1851851851852 C3 + 64.81481481481481 C4 + 73.01587301587301 C5
   + 65.47619047619047 C6 + 128.042328042328 C7 + 81.74603174603175 C8
Subject To
 route-selection: C0 + C1 + C2 >= 1
 route-selection: C3 + C4 + C5 >= 1
 route-selection: C6 + C7 + C8 >= 1
Bounds
Binaries
 C0 C1 C2 C3 C4 C5 C6 C7 C8
End
